% seed = 3197474

mint = 59;
% maxt = 222;

nActs = 42;
dur = [0,4,4,4,7,3,3,8,10,7,7,6,4,7,8,8,4,9,4,10,9,2,7,6,1,5,7,8,6,6,6,1,2,6,8,9,6,2,4,3,1,0];

nSkills = 4;
sreq = [| 0,0,0,0,
	| 3,0,7,0,
	| 7,0,0,4,
	| 3,4,7,3,
	| 4,7,0,0,
	| 0,0,7,2,
	| 3,3,5,6,
	| 0,4,5,7,
	| 3,0,0,3,
	| 7,6,3,1,
	| 3,6,0,3,
	| 4,4,2,2,
	| 6,3,2,0,
	| 2,4,2,6,
	| 3,2,0,3,
	| 6,0,5,4,
	| 6,0,0,3,
	| 0,4,7,0,
	| 2,4,7,0,
	| 2,4,0,4,
	| 0,4,0,5,
	| 3,4,7,4,
	| 4,0,6,0,
	| 3,3,3,0,
	| 6,2,4,5,
	| 4,0,0,7,
	| 0,4,0,7,
	| 7,0,2,0,
	| 7,7,0,0,
	| 0,2,7,3,
	| 4,3,0,5,
	| 4,4,2,4,
	| 2,0,6,3,
	| 6,4,4,0,
	| 5,5,0,0,
	| 3,0,7,6,
	| 3,2,3,3,
	| 7,1,0,7,
	| 0,4,0,3,
	| 0,6,7,0,
	| 5,0,1,2,
	| 0,0,0,0, |];

nResources = 45;
mastery = [| false,true,false,false,
	| false,true,false,true,
	| true,true,false,false,
	| false,false,false,true,
	| true,false,true,true,
	| true,false,false,false,
	| false,false,true,false,
	| true,false,false,false,
	| true,false,false,true,
	| false,true,true,true,
	| true,true,true,false,
	| false,false,true,false,
	| true,false,false,true,
	| true,true,false,true,
	| true,false,false,false,
	| false,true,false,false,
	| true,false,true,false,
	| true,true,false,true,
	| false,true,true,true,
	| true,false,false,true,
	| false,false,false,true,
	| false,false,true,false,
	| true,false,true,false,
	| false,false,true,false,
	| false,false,true,false,
	| true,false,true,true,
	| true,false,true,true,
	| true,false,true,false,
	| true,false,true,true,
	| false,false,true,true,
	| true,true,false,false,
	| true,true,true,false,
	| false,true,true,true,
	| false,false,true,true,
	| false,false,false,true,
	| true,false,false,false,
	| true,true,true,false,
	| false,false,true,false,
	| false,false,true,false,
	| true,true,true,false,
	| false,true,true,true,
	| false,true,false,false,
	| false,true,true,false,
	| false,false,true,false,
	| true,false,true,false, |];

nPrecs = 73;
pred = [1,1,1,2,2,3,3,3,4,4,4,5,6,6,6,7,7,7,8,8,8,9,10,11,11,11,12,13,13,14,14,15,16,16,16,17,18,19,19,20,21,21,22,22,22,23,23,24,24,24,25,26,26,26,27,27,27,28,29,30,30,31,32,32,33,34,35,36,37,38,39,40,41];
succ = [2,3,4,18,15,5,6,8,25,12,14,10,9,17,7,21,13,16,33,9,37,26,11,18,20,24,24,19,20,22,24,22,18,19,32,32,23,34,29,40,28,40,35,28,29,26,36,27,36,30,32,41,29,30,34,28,31,37,38,34,39,35,33,38,39,41,39,37,41,40,42,42,42];

nUnrels = 443;
unpred = [2,2,2,2,2,2,2,2,2,2,2,2,2,2,2,2,2,2,2,2,2,2,2,3,3,3,3,3,3,4,4,4,4,4,4,4,4,4,4,4,4,4,4,4,4,4,5,5,5,5,5,5,5,5,5,5,5,5,5,5,5,5,6,6,6,6,6,6,6,6,6,6,6,6,7,7,7,7,7,7,7,7,7,7,7,7,7,7,8,8,8,8,8,8,8,8,8,8,8,8,8,8,8,8,8,8,8,8,8,8,9,9,9,9,9,9,9,9,9,9,9,9,9,9,9,9,9,9,9,9,9,9,9,9,10,10,10,10,10,10,10,10,10,10,10,10,11,11,11,11,11,11,11,11,11,11,11,11,12,12,12,12,12,12,12,12,12,12,12,12,12,12,12,12,12,12,13,13,13,13,13,13,13,13,13,13,13,13,13,13,13,13,13,13,13,13,13,14,14,14,14,14,14,14,14,14,14,14,14,15,15,15,15,15,15,15,15,15,15,15,15,15,15,15,15,15,16,16,16,16,16,16,16,16,16,16,17,17,17,17,17,17,17,17,17,17,17,17,17,17,17,17,17,17,17,18,18,18,18,18,18,18,18,18,18,18,18,19,19,19,19,19,19,19,19,19,19,19,19,19,19,19,19,19,20,20,20,20,20,20,20,20,20,20,20,20,20,20,20,20,20,20,20,20,21,21,21,21,21,21,21,21,21,21,21,21,21,21,21,21,22,22,22,22,22,22,22,22,22,22,22,23,23,23,23,23,23,23,23,24,24,24,24,24,24,24,25,25,25,25,25,25,25,25,25,25,25,26,26,26,26,26,26,26,26,27,27,27,27,27,27,27,28,28,28,28,28,28,28,28,28,28,28,29,29,29,29,29,29,29,29,29,29,30,30,30,30,30,30,30,30,31,31,31,31,31,31,31,31,32,32,32,32,32,33,33,33,33,33,33,33,34,34,34,34,34,34,35,35,35,35,35,36,36,36,37,37,37,38,38,39,39,40];
unsucc = [3,4,5,6,7,8,9,10,11,12,13,14,16,17,19,20,21,24,25,27,31,32,33,4,12,14,15,22,25,5,6,7,8,9,10,11,13,15,16,17,18,19,20,21,23,26,6,7,8,9,12,13,14,15,16,17,19,21,22,25,32,33,8,10,11,12,14,15,22,24,25,27,31,35,8,9,10,11,12,14,15,17,22,24,25,27,31,35,10,11,12,13,14,15,16,17,18,19,20,21,22,23,24,25,27,28,31,32,35,36,10,11,12,13,14,15,16,17,18,19,20,21,22,23,24,25,27,28,31,32,33,35,36,37,12,13,14,15,16,17,19,21,22,25,32,33,12,13,14,15,16,17,19,21,22,25,32,33,13,14,15,16,17,18,19,20,21,22,23,25,26,29,32,33,38,40,14,15,16,17,18,21,22,23,24,25,26,27,28,30,31,32,33,35,36,37,39,15,16,17,18,19,20,21,23,25,26,32,33,16,17,18,19,20,21,23,24,25,26,27,30,31,32,33,34,36,17,20,21,22,24,25,27,28,31,35,18,19,20,21,22,23,24,25,26,27,28,29,30,31,34,35,36,37,41,19,20,21,22,24,25,27,28,31,32,33,35,20,21,22,23,24,25,26,27,28,30,31,32,33,35,36,37,39,21,22,23,24,25,26,27,28,29,30,31,32,33,34,35,36,37,38,39,41,22,23,24,25,26,27,29,30,31,32,33,34,35,36,38,39,23,24,25,26,27,30,31,32,33,34,36,24,25,27,28,31,32,33,35,25,26,29,32,33,38,40,26,27,28,29,30,31,34,35,36,37,41,27,28,31,32,33,35,36,37,29,30,32,33,36,38,40,29,30,31,32,33,34,35,36,38,39,40,30,31,32,33,34,35,36,37,39,41,31,32,33,35,36,37,38,40,32,33,34,36,37,38,40,41,34,35,36,37,41,34,35,36,37,38,40,41,35,36,37,38,39,40,36,37,38,40,41,38,39,40,38,39,40,39,41,40,41,41];

USEFUL_RES = [{},
	{3,5,6,7,8,9,10,11,12,13,14,15,17,18,19,20,22,23,24,25,26,27,28,29,30,31,32,33,34,36,37,38,39,40,41,43,44,45},
	{2,3,4,5,6,8,9,10,11,13,14,15,17,18,19,20,21,23,26,27,28,29,30,31,32,33,34,35,36,37,40,41,45},
	{1,2,3,4,5,6,7,8,9,10,11,12,13,14,15,16,17,18,19,20,21,22,23,24,25,26,27,28,29,30,31,32,33,34,35,36,37,38,39,40,41,42,43,44,45},
	{1,2,3,5,6,8,9,10,11,13,14,15,16,17,18,19,20,23,26,27,28,29,31,32,33,36,37,40,41,42,43,45},
	{2,4,5,7,9,10,11,12,13,14,17,18,19,20,21,22,23,24,25,26,27,28,29,30,32,33,34,35,37,38,39,40,41,43,44,45},
	{1,2,3,4,5,6,7,8,9,10,11,12,13,14,15,16,17,18,19,20,21,22,23,24,25,26,27,28,29,30,31,32,33,34,35,36,37,38,39,40,41,42,43,44,45},
	{1,2,3,4,5,7,9,10,11,12,13,14,16,17,18,19,20,21,22,23,24,25,26,27,28,29,30,31,32,33,34,35,37,38,39,40,41,42,43,44,45},
	{2,3,4,5,6,8,9,10,11,13,14,15,17,18,19,20,21,23,26,27,28,29,30,31,32,33,34,35,36,37,40,41,45},
	{1,2,3,4,5,6,7,8,9,10,11,12,13,14,15,16,17,18,19,20,21,22,23,24,25,26,27,28,29,30,31,32,33,34,35,36,37,38,39,40,41,42,43,44,45},
	{1,2,3,4,5,6,8,9,10,11,13,14,15,16,17,18,19,20,21,23,26,27,28,29,30,31,32,33,34,35,36,37,40,41,42,43,45},
	{1,2,3,4,5,6,7,8,9,10,11,12,13,14,15,16,17,18,19,20,21,22,23,24,25,26,27,28,29,30,31,32,33,34,35,36,37,38,39,40,41,42,43,44,45},
	{1,2,3,5,6,7,8,9,10,11,12,13,14,15,16,17,18,19,20,22,23,24,25,26,27,28,29,30,31,32,33,34,36,37,38,39,40,41,42,43,44,45},
	{1,2,3,4,5,6,7,8,9,10,11,12,13,14,15,16,17,18,19,20,21,22,23,24,25,26,27,28,29,30,31,32,33,34,35,36,37,38,39,40,41,42,43,44,45},
	{1,2,3,4,5,6,8,9,10,11,13,14,15,16,17,18,19,20,21,23,26,27,28,29,30,31,32,33,34,35,36,37,40,41,42,43,45},
	{2,3,4,5,6,7,8,9,10,11,12,13,14,15,17,18,19,20,21,22,23,24,25,26,27,28,29,30,31,32,33,34,35,36,37,38,39,40,41,43,44,45},
	{2,3,4,5,6,8,9,10,11,13,14,15,17,18,19,20,21,23,26,27,28,29,30,31,32,33,34,35,36,37,40,41,45},
	{1,2,3,5,7,10,11,12,14,16,17,18,19,22,23,24,25,26,27,28,29,30,31,32,33,34,37,38,39,40,41,42,43,44,45},
	{1,2,3,5,6,7,8,9,10,11,12,13,14,15,16,17,18,19,20,22,23,24,25,26,27,28,29,30,31,32,33,34,36,37,38,39,40,41,42,43,44,45},
	{1,2,3,4,5,6,8,9,10,11,13,14,15,16,17,18,19,20,21,23,26,27,28,29,30,31,32,33,34,35,36,37,40,41,42,43,45},
	{1,2,3,4,5,9,10,11,13,14,16,18,19,20,21,26,27,29,30,31,32,33,34,35,37,40,41,42,43},
	{1,2,3,4,5,6,7,8,9,10,11,12,13,14,15,16,17,18,19,20,21,22,23,24,25,26,27,28,29,30,31,32,33,34,35,36,37,38,39,40,41,42,43,44,45},
	{3,5,6,7,8,9,10,11,12,13,14,15,17,18,19,20,22,23,24,25,26,27,28,29,30,31,32,33,34,36,37,38,39,40,41,43,44,45},
	{1,2,3,5,6,7,8,9,10,11,12,13,14,15,16,17,18,19,20,22,23,24,25,26,27,28,29,30,31,32,33,34,36,37,38,39,40,41,42,43,44,45},
	{1,2,3,4,5,6,7,8,9,10,11,12,13,14,15,16,17,18,19,20,21,22,23,24,25,26,27,28,29,30,31,32,33,34,35,36,37,38,39,40,41,42,43,44,45},
	{2,3,4,5,6,8,9,10,11,13,14,15,17,18,19,20,21,23,26,27,28,29,30,31,32,33,34,35,36,37,40,41,45},
	{1,2,3,4,5,9,10,11,13,14,16,18,19,20,21,26,27,29,30,31,32,33,34,35,37,40,41,42,43},
	{3,5,6,7,8,9,10,11,12,13,14,15,17,18,19,20,22,23,24,25,26,27,28,29,30,31,32,33,34,36,37,38,39,40,41,43,44,45},
	{1,2,3,5,6,8,9,10,11,13,14,15,16,17,18,19,20,23,26,27,28,29,31,32,33,36,37,40,41,42,43,45},
	{1,2,3,4,5,7,9,10,11,12,13,14,16,17,18,19,20,21,22,23,24,25,26,27,28,29,30,31,32,33,34,35,37,38,39,40,41,42,43,44,45},
	{1,2,3,4,5,6,8,9,10,11,13,14,15,16,17,18,19,20,21,23,26,27,28,29,30,31,32,33,34,35,36,37,40,41,42,43,45},
	{1,2,3,4,5,6,7,8,9,10,11,12,13,14,15,16,17,18,19,20,21,22,23,24,25,26,27,28,29,30,31,32,33,34,35,36,37,38,39,40,41,42,43,44,45},
	{2,3,4,5,6,7,8,9,10,11,12,13,14,15,17,18,19,20,21,22,23,24,25,26,27,28,29,30,31,32,33,34,35,36,37,38,39,40,41,43,44,45},
	{1,2,3,5,6,7,8,9,10,11,12,13,14,15,16,17,18,19,20,22,23,24,25,26,27,28,29,30,31,32,33,34,36,37,38,39,40,41,42,43,44,45},
	{1,2,3,5,6,8,9,10,11,13,14,15,16,17,18,19,20,23,26,27,28,29,31,32,33,36,37,40,41,42,43,45},
	{2,3,4,5,6,7,8,9,10,11,12,13,14,15,17,18,19,20,21,22,23,24,25,26,27,28,29,30,31,32,33,34,35,36,37,38,39,40,41,43,44,45},
	{1,2,3,4,5,6,7,8,9,10,11,12,13,14,15,16,17,18,19,20,21,22,23,24,25,26,27,28,29,30,31,32,33,34,35,36,37,38,39,40,41,42,43,44,45},
	{1,2,3,4,5,6,8,9,10,11,13,14,15,16,17,18,19,20,21,23,26,27,28,29,30,31,32,33,34,35,36,37,40,41,42,43,45},
	{1,2,3,4,5,9,10,11,13,14,16,18,19,20,21,26,27,29,30,31,32,33,34,35,37,40,41,42,43},
	{1,2,3,5,7,10,11,12,14,16,17,18,19,22,23,24,25,26,27,28,29,30,31,32,33,34,37,38,39,40,41,42,43,44,45},
	{2,3,4,5,6,7,8,9,10,11,12,13,14,15,17,18,19,20,21,22,23,24,25,26,27,28,29,30,31,32,33,34,35,36,37,38,39,40,41,43,44,45},
	{}];

POTENTIAL_ACT = [{4,5,7,8,10,11,12,13,14,15,18,19,20,21,22,24,25,27,29,30,31,32,34,35,37,38,39,40},
	{3,4,5,6,7,8,9,10,11,12,13,14,15,16,17,18,19,20,21,22,24,25,26,27,29,30,31,32,33,34,35,36,37,38,39,40,41},
	{2,3,4,5,7,8,9,10,11,12,13,14,15,16,17,18,19,20,21,22,23,24,25,26,27,28,29,30,31,32,33,34,35,36,37,38,39,40,41},
	{3,4,6,7,8,9,10,11,12,14,15,16,17,20,21,22,25,26,27,30,31,32,33,36,37,38,39,41},
	{2,3,4,5,6,7,8,9,10,11,12,13,14,15,16,17,18,19,20,21,22,23,24,25,26,27,28,29,30,31,32,33,34,35,36,37,38,39,40,41},
	{2,3,4,5,7,9,10,11,12,13,14,15,16,17,19,20,22,23,24,25,26,28,29,31,32,33,34,35,36,37,38,41},
	{2,4,6,7,8,10,12,13,14,16,18,19,22,23,24,25,28,30,32,33,34,36,37,40,41},
	{2,3,4,5,7,9,10,11,12,13,14,15,16,17,19,20,22,23,24,25,26,28,29,31,32,33,34,35,36,37,38,41},
	{2,3,4,5,6,7,8,9,10,11,12,13,14,15,16,17,19,20,21,22,23,24,25,26,27,28,29,30,31,32,33,34,35,36,37,38,39,41},
	{2,3,4,5,6,7,8,9,10,11,12,13,14,15,16,17,18,19,20,21,22,23,24,25,26,27,28,29,30,31,32,33,34,35,36,37,38,39,40,41},
	{2,3,4,5,6,7,8,9,10,11,12,13,14,15,16,17,18,19,20,21,22,23,24,25,26,27,28,29,30,31,32,33,34,35,36,37,38,39,40,41},
	{2,4,6,7,8,10,12,13,14,16,18,19,22,23,24,25,28,30,32,33,34,36,37,40,41},
	{2,3,4,5,6,7,8,9,10,11,12,13,14,15,16,17,19,20,21,22,23,24,25,26,27,28,29,30,31,32,33,34,35,36,37,38,39,41},
	{2,3,4,5,6,7,8,9,10,11,12,13,14,15,16,17,18,19,20,21,22,23,24,25,26,27,28,29,30,31,32,33,34,35,36,37,38,39,40,41},
	{2,3,4,5,7,9,10,11,12,13,14,15,16,17,19,20,22,23,24,25,26,28,29,31,32,33,34,35,36,37,38,41},
	{4,5,7,8,10,11,12,13,14,15,18,19,20,21,22,24,25,27,29,30,31,32,34,35,37,38,39,40},
	{2,3,4,5,6,7,8,9,10,11,12,13,14,15,16,17,18,19,20,22,23,24,25,26,28,29,30,31,32,33,34,35,36,37,38,40,41},
	{2,3,4,5,6,7,8,9,10,11,12,13,14,15,16,17,18,19,20,21,22,23,24,25,26,27,28,29,30,31,32,33,34,35,36,37,38,39,40,41},
	{2,3,4,5,6,7,8,9,10,11,12,13,14,15,16,17,18,19,20,21,22,23,24,25,26,27,28,29,30,31,32,33,34,35,36,37,38,39,40,41},
	{2,3,4,5,6,7,8,9,10,11,12,13,14,15,16,17,19,20,21,22,23,24,25,26,27,28,29,30,31,32,33,34,35,36,37,38,39,41},
	{3,4,6,7,8,9,10,11,12,14,15,16,17,20,21,22,25,26,27,30,31,32,33,36,37,38,39,41},
	{2,4,6,7,8,10,12,13,14,16,18,19,22,23,24,25,28,30,32,33,34,36,37,40,41},
	{2,3,4,5,6,7,8,9,10,11,12,13,14,15,16,17,18,19,20,22,23,24,25,26,28,29,30,31,32,33,34,35,36,37,38,40,41},
	{2,4,6,7,8,10,12,13,14,16,18,19,22,23,24,25,28,30,32,33,34,36,37,40,41},
	{2,4,6,7,8,10,12,13,14,16,18,19,22,23,24,25,28,30,32,33,34,36,37,40,41},
	{2,3,4,5,6,7,8,9,10,11,12,13,14,15,16,17,18,19,20,21,22,23,24,25,26,27,28,29,30,31,32,33,34,35,36,37,38,39,40,41},
	{2,3,4,5,6,7,8,9,10,11,12,13,14,15,16,17,18,19,20,21,22,23,24,25,26,27,28,29,30,31,32,33,34,35,36,37,38,39,40,41},
	{2,3,4,5,6,7,8,9,10,11,12,13,14,15,16,17,18,19,20,22,23,24,25,26,28,29,30,31,32,33,34,35,36,37,38,40,41},
	{2,3,4,5,6,7,8,9,10,11,12,13,14,15,16,17,18,19,20,21,22,23,24,25,26,27,28,29,30,31,32,33,34,35,36,37,38,39,40,41},
	{2,3,4,6,7,8,9,10,11,12,13,14,15,16,17,18,19,20,21,22,23,24,25,26,27,28,30,31,32,33,34,36,37,38,39,40,41},
	{2,3,4,5,7,8,9,10,11,12,13,14,15,16,17,18,19,20,21,22,23,24,25,26,27,28,29,30,31,32,33,34,35,36,37,38,39,40,41},
	{2,3,4,5,6,7,8,9,10,11,12,13,14,15,16,17,18,19,20,21,22,23,24,25,26,27,28,29,30,31,32,33,34,35,36,37,38,39,40,41},
	{2,3,4,5,6,7,8,9,10,11,12,13,14,15,16,17,18,19,20,21,22,23,24,25,26,27,28,29,30,31,32,33,34,35,36,37,38,39,40,41},
	{2,3,4,6,7,8,9,10,11,12,13,14,15,16,17,18,19,20,21,22,23,24,25,26,27,28,30,31,32,33,34,36,37,38,39,40,41},
	{3,4,6,7,8,9,10,11,12,14,15,16,17,20,21,22,25,26,27,30,31,32,33,36,37,38,39,41},
	{2,3,4,5,7,9,10,11,12,13,14,15,16,17,19,20,22,23,24,25,26,28,29,31,32,33,34,35,36,37,38,41},
	{2,3,4,5,6,7,8,9,10,11,12,13,14,15,16,17,18,19,20,21,22,23,24,25,26,27,28,29,30,31,32,33,34,35,36,37,38,39,40,41},
	{2,4,6,7,8,10,12,13,14,16,18,19,22,23,24,25,28,30,32,33,34,36,37,40,41},
	{2,4,6,7,8,10,12,13,14,16,18,19,22,23,24,25,28,30,32,33,34,36,37,40,41},
	{2,3,4,5,6,7,8,9,10,11,12,13,14,15,16,17,18,19,20,21,22,23,24,25,26,27,28,29,30,31,32,33,34,35,36,37,38,39,40,41},
	{2,3,4,5,6,7,8,9,10,11,12,13,14,15,16,17,18,19,20,21,22,23,24,25,26,27,28,29,30,31,32,33,34,35,36,37,38,39,40,41},
	{4,5,7,8,10,11,12,13,14,15,18,19,20,21,22,24,25,27,29,30,31,32,34,35,37,38,39,40},
	{2,4,5,6,7,8,10,11,12,13,14,15,16,18,19,20,21,22,23,24,25,27,28,29,30,31,32,33,34,35,36,37,38,39,40,41},
	{2,4,6,7,8,10,12,13,14,16,18,19,22,23,24,25,28,30,32,33,34,36,37,40,41},
	{2,3,4,5,6,7,8,9,10,11,12,13,14,15,16,17,18,19,20,22,23,24,25,26,28,29,30,31,32,33,34,35,36,37,38,40,41}];
